Maximize
  - 38 x0 - 48 x1 - 45 x2 + 29 x3 - 37 x4 + 23 x5 + 0 x6 + 22 x7 + 0 x8
   - 41 x9 + 0 x10 + 13 x11 + 32 x12 - 46 x13 - 23 x14 - 17 x15 + 10 x16
   + 0 x17 + 0 x18 + 25 x19 + 0 x20 - 16 x21 + 0 x22 - 23 x23 - 36 x24
   - 21 x25 + 17 x26 + 40 x27 - 10 x28 - 20 x29 - 37 x30 - 33 x31 + 0 x32
   + 0 x33 + 0 x34 - 10 x35 - 17 x36 + 0 x37 + 46 x38 + 0 x39 - x40
   + 18 x41 + 0 x42 - 49 x43 + 0 x44 - 27 x45 + 11 x46 + 12 x47 - 23 x48
   - 42 x49 + 5 x50 + 0 x51 + 0 x52 + 41 x53 + 10 x54 + 25 x55 + 0 x56
   - 41 x57 - 37 x58 + 0 x59 + 41 x60 - 16 x61 + 9 x62 - 16 x63 - 40 x64
   + 21 x65 + 2 x66 + 0 x67 + 23 x68 + 41 x69 + [ - 22 x0 ^2 + 28 x0 * x2
   + 42 x0 * x3 - 78 x0 * x4 - 28 x0 * x5 - 26 x0 * x6 + 92 x0 * x7
   - 32 x0 * x9 - 94 x0 * x10 + 38 x0 * x13 + 70 x0 * x14 - 38 x0 * x15
   + 30 x0 * x16 - 52 x0 * x17 + 60 x0 * x18 + 12 x0 * x19 - 70 x0 * x20
   + 8 x0 * x22 - 96 x0 * x23 - 38 x0 * x24 - 4 x0 * x27 + 6 x0 * x28
   - 24 x0 * x29 + 2 x0 * x31 - 16 x0 * x32 + 86 x0 * x33 - 44 x0 * x35
   + 46 x0 * x36 - 84 x0 * x37 - 98 x0 * x38 - 50 x0 * x39 + 36 x0 * x40
   - 78 x0 * x42 - 20 x0 * x44 - 52 x0 * x45 - 2 x0 * x46 + 68 x0 * x47
   - 90 x0 * x48 + 14 x0 * x50 - 10 x0 * x51 + 10 x0 * x52 + 36 x0 * x53
   + 10 x0 * x54 - 34 x0 * x55 - 12 x0 * x58 + 20 x0 * x59 - 66 x0 * x62
   + 86 x0 * x63 - 96 x0 * x64 - 6 x0 * x65 - 46 x0 * x66 - 60 x0 * x67
   - 98 x0 * x68 - 88 x0 * x69 - 41 x1 ^2 - 46 x1 * x2 + 2 x1 * x3
   - 54 x1 * x4 + 92 x1 * x6 - 4 x1 * x7 - 46 x1 * x9 + 60 x1 * x10
   - 76 x1 * x11 + 94 x1 * x12 - 96 x1 * x13 + 24 x1 * x15 - 52 x1 * x18
   + 44 x1 * x22 - 16 x1 * x23 + 2 x1 * x24 + 54 x1 * x25 + 86 x1 * x26
   + 26 x1 * x27 - 58 x1 * x30 - 2 x1 * x31 + 36 x1 * x32 - 76 x1 * x36
   + 64 x1 * x38 + 40 x1 * x39 + 50 x1 * x41 - 76 x1 * x42 + 26 x1 * x43
   - 64 x1 * x46 - 6 x1 * x47 - 88 x1 * x48 + 50 x1 * x50 - 14 x1 * x51
   - 60 x1 * x52 + 24 x1 * x54 - 32 x1 * x56 + 46 x1 * x57 + 14 x1 * x61
   + 6 x1 * x64 - 30 x1 * x67 - 8 x1 * x68 - 78 x1 * x69 - 27 x2 ^2
   + 94 x2 * x3 + 4 x2 * x4 + 70 x2 * x6 - 74 x2 * x7 + 30 x2 * x8
   - 86 x2 * x10 + 74 x2 * x11 + 90 x2 * x12 + 8 x2 * x13 - 56 x2 * x14
   + 56 x2 * x15 - 16 x2 * x16 - 90 x2 * x17 + 64 x2 * x20 + 32 x2 * x21
   - 52 x2 * x22 - 98 x2 * x23 + 58 x2 * x24 + 28 x2 * x25 - 48 x2 * x26
   - 22 x2 * x27 + 48 x2 * x28 - 84 x2 * x31 - 86 x2 * x32 + 88 x2 * x33
   + 36 x2 * x34 - 76 x2 * x36 - 66 x2 * x37 - 12 x2 * x38 - 14 x2 * x39
   + 58 x2 * x43 - 50 x2 * x45 + 62 x2 * x46 - 80 x2 * x47 - 80 x2 * x48
   + 60 x2 * x49 + 26 x2 * x50 - 38 x2 * x51 - 42 x2 * x53 + 70 x2 * x54
   - 16 x2 * x56 - 66 x2 * x57 + 76 x2 * x58 + 94 x2 * x59 + 84 x2 * x62
   + 16 x2 * x63 - 58 x2 * x64 - 20 x2 * x65 - 22 x2 * x67 + 64 x2 * x68
   - 62 x2 * x69 - 11 x3 ^2 - 66 x3 * x4 - 38 x3 * x6 + 68 x3 * x7
   + 10 x3 * x8 - 16 x3 * x9 + 66 x3 * x10 + 22 x3 * x12 - 94 x3 * x13
   + 36 x3 * x14 - 50 x3 * x16 - 2 x3 * x17 + 86 x3 * x18 + 66 x3 * x19
   - 90 x3 * x20 - 82 x3 * x21 - 48 x3 * x22 - 26 x3 * x24 + 16 x3 * x25
   + 38 x3 * x27 - 60 x3 * x28 + 94 x3 * x31 - 46 x3 * x34 - 42 x3 * x36
   - 76 x3 * x38 + 6 x3 * x39 + 22 x3 * x40 + 74 x3 * x41 - 80 x3 * x42
   - 90 x3 * x43 + 58 x3 * x46 + 8 x3 * x49 + 40 x3 * x51 + 86 x3 * x52
   - 82 x3 * x53 + 64 x3 * x54 - 84 x3 * x55 + 66 x3 * x56 - 82 x3 * x58
   + 54 x3 * x60 - 70 x3 * x61 + 74 x3 * x64 + 66 x3 * x65 + 48 x3 * x66
   + 18 x3 * x67 - 78 x3 * x69 - 38 x4 * x5 + 36 x4 * x6 + 94 x4 * x7
   + 78 x4 * x10 + 58 x4 * x11 + 24 x4 * x12 + 76 x4 * x13 - 98 x4 * x14
   - 2 x4 * x15 - 74 x4 * x16 + 74 x4 * x17 + 28 x4 * x18 + 36 x4 * x19
   + 4 x4 * x20 - 92 x4 * x21 - 30 x4 * x24 + 88 x4 * x25 - 12 x4 * x26
   + 18 x4 * x27 + 76 x4 * x28 - 50 x4 * x32 - 72 x4 * x33 + 78 x4 * x34
   + 44 x4 * x35 - 40 x4 * x36 - 12 x4 * x37 - 86 x4 * x38 + 2 x4 * x41
   + 84 x4 * x42 + 50 x4 * x43 - 10 x4 * x46 + 12 x4 * x47 - 42 x4 * x48
   + 40 x4 * x49 + 80 x4 * x50 - 50 x4 * x51 - 52 x4 * x52 - 36 x4 * x53
   - 90 x4 * x54 - 60 x4 * x56 - 74 x4 * x57 - 86 x4 * x58 - 34 x4 * x59
   - 74 x4 * x60 - 54 x4 * x61 + 36 x4 * x63 - 36 x4 * x64 + 60 x4 * x66
   + 2 x4 * x69 - 38 x5 ^2 - 68 x5 * x6 + 82 x5 * x9 - 4 x5 * x10
   + 70 x5 * x11 - 40 x5 * x12 - 54 x5 * x13 - 16 x5 * x15 + 8 x5 * x16
   + 10 x5 * x19 + 34 x5 * x20 - 94 x5 * x21 - 14 x5 * x22 - 98 x5 * x23
   + 24 x5 * x24 - 86 x5 * x25 + 34 x5 * x26 - 4 x5 * x28 - 94 x5 * x31
   + 38 x5 * x32 + 68 x5 * x34 - 86 x5 * x35 - 86 x5 * x36 - 10 x5 * x37
   + 2 x5 * x38 + 90 x5 * x41 + 80 x5 * x42 - 70 x5 * x43 + 18 x5 * x44
   + 16 x5 * x46 - 36 x5 * x47 - 30 x5 * x48 + 44 x5 * x49 - 96 x5 * x50
   - 58 x5 * x53 - 86 x5 * x55 + 58 x5 * x56 - 80 x5 * x57 + 82 x5 * x58
   + 34 x5 * x60 - 64 x5 * x61 - 12 x5 * x62 + 14 x5 * x63 - 24 x5 * x64
   - 74 x5 * x66 - 40 x5 * x67 + 94 x5 * x69 - 6 x6 ^2 + 28 x6 * x8
   + 18 x6 * x9 - 30 x6 * x10 + 58 x6 * x13 - 62 x6 * x14 + 22 x6 * x16
   + 96 x6 * x17 - 90 x6 * x18 - 94 x6 * x20 + 26 x6 * x21 + 46 x6 * x22
   + 4 x6 * x24 - 18 x6 * x25 + 56 x6 * x26 + 28 x6 * x27 + 66 x6 * x30
   - 62 x6 * x31 + 50 x6 * x33 + 76 x6 * x34 - 26 x6 * x35 + 2 x6 * x36
   - 96 x6 * x38 + 34 x6 * x40 - 14 x6 * x42 - 84 x6 * x43 - 46 x6 * x44
   - 16 x6 * x45 + 6 x6 * x47 - 32 x6 * x48 + 40 x6 * x49 - 38 x6 * x50
   - 36 x6 * x53 + 58 x6 * x54 + 74 x6 * x56 - 22 x6 * x57 + 42 x6 * x58
   - 38 x6 * x59 - 54 x6 * x60 - 58 x6 * x61 - 68 x6 * x62 - 44 x6 * x65
   - 68 x6 * x66 + 8 x6 * x67 + 66 x6 * x68 - 2 x6 * x69 + 33 x7 ^2
   - 38 x7 * x8 + 86 x7 * x11 + 96 x7 * x14 - 44 x7 * x15 - 16 x7 * x16
   + 32 x7 * x18 - 62 x7 * x19 + 28 x7 * x20 + 6 x7 * x23 + 52 x7 * x24
   + 50 x7 * x25 + 38 x7 * x26 - 44 x7 * x27 - 84 x7 * x30 - 20 x7 * x31
   - 82 x7 * x32 - 66 x7 * x34 - 98 x7 * x35 + 60 x7 * x36 + 50 x7 * x38
   + 88 x7 * x39 - 74 x7 * x41 + 24 x7 * x42 - 40 x7 * x44 - 48 x7 * x47
   - 74 x7 * x49 + 38 x7 * x50 + 6 x7 * x51 + 60 x7 * x52 + 4 x7 * x53
   - 82 x7 * x54 + 10 x7 * x55 - 14 x7 * x56 - 60 x7 * x58 - 2 x7 * x59
   + 18 x7 * x61 - 30 x7 * x65 + 10 x7 * x66 + 44 x7 * x67 + 2 x7 * x69
   - 19 x8 ^2 - 76 x8 * x9 - 2 x8 * x12 + 86 x8 * x13 - 48 x8 * x15
   - 78 x8 * x16 - 92 x8 * x17 - 36 x8 * x18 - 56 x8 * x19 + 48 x8 * x21
   - 26 x8 * x22 - 4 x8 * x25 - 94 x8 * x26 - 10 x8 * x27 + 64 x8 * x28
   - 20 x8 * x30 + 60 x8 * x31 - 44 x8 * x33 - 94 x8 * x34 + 24 x8 * x35
   - 80 x8 * x36 - 98 x8 * x38 + 48 x8 * x39 + 80 x8 * x40 - 4 x8 * x41
   + 4 x8 * x43 + 32 x8 * x45 - 50 x8 * x46 - 64 x8 * x48 + 68 x8 * x49
   + 66 x8 * x50 + 78 x8 * x51 - 54 x8 * x52 - 44 x8 * x53 + 2 x8 * x54
   + 78 x8 * x55 - 34 x8 * x57 + 8 x8 * x58 - 76 x8 * x59 - 48 x8 * x60
   + 14 x8 * x61 + 56 x8 * x63 - 48 x8 * x64 - 42 x8 * x65 - 4 x8 * x66
   + 60 x8 * x67 - 98 x8 * x68 + 10 x8 * x69 - 46 x9 ^2 - 40 x9 * x10
   - 60 x9 * x11 - 52 x9 * x12 + 4 x9 * x13 - 98 x9 * x14 - 80 x9 * x16
   + 86 x9 * x18 - 86 x9 * x21 + 76 x9 * x22 - 54 x9 * x25 - 78 x9 * x26
   - 46 x9 * x27 - 60 x9 * x28 - 86 x9 * x29 + 72 x9 * x30 - 88 x9 * x32
   + 54 x9 * x33 - 20 x9 * x35 - 46 x9 * x36 + 48 x9 * x37 - 18 x9 * x38
   - 72 x9 * x40 - 36 x9 * x41 - 84 x9 * x42 + 8 x9 * x43 + 64 x9 * x44
   - 6 x9 * x45 + 26 x9 * x46 - 20 x9 * x48 - 68 x9 * x49 + 78 x9 * x50
   - 52 x9 * x51 + 14 x9 * x53 + 58 x9 * x54 + 70 x9 * x55 + 54 x9 * x57
   - 90 x9 * x59 + 68 x9 * x60 - 98 x9 * x61 + 50 x9 * x62 + 64 x9 * x63
   - 14 x9 * x65 - 90 x9 * x66 - 82 x9 * x67 - 38 x9 * x68 - 3 x10 ^2
   + 6 x10 * x11 + 26 x10 * x12 - 14 x10 * x13 + 2 x10 * x15 - 30 x10 * x17
   + 96 x10 * x18 - 2 x10 * x19 - 80 x10 * x20 + 16 x10 * x21
   - 30 x10 * x22 + 98 x10 * x24 - 60 x10 * x25 + 76 x10 * x26
   - 56 x10 * x27 + 16 x10 * x29 - 20 x10 * x31 + 78 x10 * x34
   - 24 x10 * x35 + 62 x10 * x36 + 46 x10 * x38 + 42 x10 * x39
   + 28 x10 * x40 - 20 x10 * x41 - 36 x10 * x42 - 70 x10 * x43
   - 10 x10 * x44 + 92 x10 * x45 - 18 x10 * x46 - 80 x10 * x47
   + 46 x10 * x48 + 70 x10 * x49 + 76 x10 * x50 - 78 x10 * x56
   - 92 x10 * x57 - 84 x10 * x58 - 8 x10 * x60 + 26 x10 * x61
   - 92 x10 * x62 + 10 x10 * x63 - 64 x10 * x65 + 70 x10 * x66
   + 86 x10 * x67 - 40 x10 * x68 - 62 x10 * x69 - 10 x11 ^2 + 84 x11 * x13
   - 28 x11 * x14 + 66 x11 * x17 - 20 x11 * x18 + 42 x11 * x19
   + 70 x11 * x20 - 80 x11 * x21 - 82 x11 * x22 + 56 x11 * x24
   - 88 x11 * x25 - 48 x11 * x27 - 74 x11 * x28 + 74 x11 * x29
   - 96 x11 * x31 - 88 x11 * x32 - 58 x11 * x33 + 52 x11 * x36
   - 28 x11 * x37 - 84 x11 * x38 - 66 x11 * x39 + 84 x11 * x40
   - 24 x11 * x41 + 20 x11 * x42 - 10 x11 * x43 + 30 x11 * x45
   - 12 x11 * x47 - 88 x11 * x48 - 54 x11 * x49 + 70 x11 * x50
   - 92 x11 * x51 - 88 x11 * x52 - 78 x11 * x53 - 4 x11 * x54
   + 44 x11 * x55 - 78 x11 * x56 + 92 x11 * x57 + 74 x11 * x59
   - 32 x11 * x60 - 6 x11 * x61 + 2 x11 * x62 + 76 x11 * x64 - 26 x11 * x65
   + 82 x11 * x66 + 52 x11 * x67 + 18 x11 * x69 - 35 x12 ^2 + 78 x12 * x13
   + 16 x12 * x14 - 68 x12 * x16 + 10 x12 * x17 + 16 x12 * x18
   - 12 x12 * x19 + 8 x12 * x20 + 8 x12 * x22 - 32 x12 * x24 + 52 x12 * x26
   + 68 x12 * x27 - 82 x12 * x28 - 42 x12 * x29 + 68 x12 * x31
   - 26 x12 * x36 + 58 x12 * x37 - 74 x12 * x38 - 10 x12 * x39
   + 72 x12 * x40 - 64 x12 * x41 - 80 x12 * x42 + 96 x12 * x43
   + 92 x12 * x44 - 88 x12 * x45 - 62 x12 * x47 - 22 x12 * x48
   + 12 x12 * x50 + 84 x12 * x51 + 20 x12 * x53 + 32 x12 * x56
   + 66 x12 * x58 - 42 x12 * x60 + 40 x12 * x62 + 58 x12 * x63
   - 66 x12 * x64 - 38 x12 * x65 - 8 x12 * x66 + 32 x12 * x67
   + 82 x12 * x68 + 4 x13 * x15 - 50 x13 * x16 + 46 x13 * x17
   - 90 x13 * x19 + 60 x13 * x20 - 98 x13 * x21 - 10 x13 * x22
   + 46 x13 * x25 + 74 x13 * x27 + 82 x13 * x28 - 34 x13 * x29
   + 96 x13 * x32 + 56 x13 * x33 + 60 x13 * x34 - 74 x13 * x35
   + 22 x13 * x36 + 56 x13 * x38 - 26 x13 * x40 - 86 x13 * x41
   - 40 x13 * x43 + 22 x13 * x45 - 80 x13 * x46 + 22 x13 * x48
   - 78 x13 * x49 - 72 x13 * x50 - 28 x13 * x51 + 50 x13 * x53
   + 52 x13 * x55 - 32 x13 * x56 - 34 x13 * x57 - 46 x13 * x58
   - 72 x13 * x59 - 18 x13 * x62 - 60 x13 * x64 + 28 x13 * x66
   - 42 x13 * x67 + 64 x13 * x69 + 45 x14 ^2 - 70 x14 * x15 + 8 x14 * x16
   - 64 x14 * x18 + 76 x14 * x20 + 24 x14 * x22 - 28 x14 * x25
   + 96 x14 * x27 - 28 x14 * x28 + 14 x14 * x32 - 56 x14 * x34
   - 74 x14 * x35 + 12 x14 * x38 - 94 x14 * x39 - 92 x14 * x40
   - 60 x14 * x41 - 22 x14 * x42 + 54 x14 * x43 + 58 x14 * x45
   + 36 x14 * x46 - 36 x14 * x47 - 64 x14 * x48 + 50 x14 * x49
   + 36 x14 * x50 - 64 x14 * x52 + 86 x14 * x53 + 42 x14 * x54
   - 46 x14 * x55 + 8 x14 * x56 + 44 x14 * x57 - 84 x14 * x58
   - 54 x14 * x59 - 4 x14 * x60 - 42 x14 * x61 - 60 x14 * x62
   - 94 x14 * x63 + 30 x14 * x64 - 94 x14 * x65 + 86 x14 * x66
   + 62 x14 * x67 - 48 x14 * x68 + 22 x14 * x69 - 30 x15 * x16
   + 76 x15 * x17 - 42 x15 * x18 + 80 x15 * x20 - 54 x15 * x21
   - 32 x15 * x23 - 20 x15 * x25 - 72 x15 * x27 + 98 x15 * x28
   - 28 x15 * x29 - 4 x15 * x31 + 56 x15 * x32 + 36 x15 * x33
   - 94 x15 * x34 + 76 x15 * x35 - 98 x15 * x36 - 42 x15 * x38
   - 44 x15 * x39 + 10 x15 * x40 + 8 x15 * x41 - 12 x15 * x42
   - 68 x15 * x43 - 8 x15 * x44 - 66 x15 * x46 - 26 x15 * x52
   - 36 x15 * x54 - 14 x15 * x56 + 26 x15 * x57 - 80 x15 * x59
   + 46 x15 * x62 - 80 x15 * x63 - 24 x15 * x64 - 52 x15 * x65
   - 66 x15 * x66 + 28 x16 ^2 - 16 x16 * x18 - 4 x16 * x19 - 4 x16 * x20
   + 50 x16 * x22 + 42 x16 * x23 + 18 x16 * x24 + 60 x16 * x25
   - 42 x16 * x26 - 54 x16 * x28 + 60 x16 * x30 - 14 x16 * x31
   + 68 x16 * x32 - 80 x16 * x33 + 14 x16 * x34 - 74 x16 * x35
   - 6 x16 * x36 - 2 x16 * x37 + 86 x16 * x39 - 76 x16 * x40 + 36 x16 * x41
   - 54 x16 * x42 - 24 x16 * x43 + 8 x16 * x44 - 10 x16 * x49
   + 14 x16 * x50 + 90 x16 * x51 - 22 x16 * x52 - 90 x16 * x54
   + 48 x16 * x55 + 72 x16 * x56 + 86 x16 * x58 - 2 x16 * x59
   + 64 x16 * x60 + 32 x16 * x62 + 88 x16 * x63 - 18 x16 * x64
   + 84 x16 * x66 + 50 x16 * x68 - 12 x17 * x19 + 24 x17 * x20
   - 40 x17 * x21 - 46 x17 * x23 - 40 x17 * x26 - 4 x17 * x28
   - 62 x17 * x30 + 92 x17 * x32 - 80 x17 * x33 - 64 x17 * x34
   - 18 x17 * x35 + 68 x17 * x36 + 98 x17 * x37 + 90 x17 * x38
   - 94 x17 * x39 + 4 x17 * x40 + 72 x17 * x41 - 70 x17 * x43
   + 54 x17 * x44 - 18 x17 * x45 + 40 x17 * x46 + 8 x17 * x47
   - 10 x17 * x48 - 96 x17 * x51 - 74 x17 * x52 - 20 x17 * x56
   - 74 x17 * x57 + 98 x17 * x58 + 42 x17 * x59 + 56 x17 * x60
   - 66 x17 * x61 - 72 x17 * x62 + 74 x17 * x63 - 82 x17 * x64
   - 66 x17 * x65 + 20 x17 * x66 - 54 x17 * x67 - 42 x18 ^2 - 6 x18 * x19
   - 8 x18 * x20 + 80 x18 * x21 + 40 x18 * x22 + 96 x18 * x23
   - 30 x18 * x24 + 10 x18 * x25 + 16 x18 * x26 - 2 x18 * x27
   + 84 x18 * x28 - 14 x18 * x29 - 6 x18 * x32 - 10 x18 * x33
   - 10 x18 * x34 - 78 x18 * x35 - 32 x18 * x37 + 46 x18 * x41
   + 98 x18 * x42 - 28 x18 * x43 - 44 x18 * x45 + 98 x18 * x46
   + 28 x18 * x48 + 56 x18 * x50 + 12 x18 * x51 + 72 x18 * x52
   - 34 x18 * x53 + 16 x18 * x56 - 60 x18 * x57 + 4 x18 * x58
   - 26 x18 * x60 - 60 x18 * x61 - 60 x18 * x62 + 64 x18 * x63
   - 86 x18 * x64 + 40 x18 * x65 - 32 x18 * x66 + 50 x18 * x67
   - 14 x18 * x68 - 18 x18 * x69 - 12 x19 ^2 + 18 x19 * x20 + 86 x19 * x21
   - 42 x19 * x23 + 28 x19 * x24 + 72 x19 * x25 + 4 x19 * x26
   + 58 x19 * x27 + 2 x19 * x29 - 24 x19 * x30 + 94 x19 * x32
   - 94 x19 * x33 - 64 x19 * x34 + 22 x19 * x35 + 38 x19 * x36
   - 58 x19 * x38 + 74 x19 * x39 - 58 x19 * x42 + 82 x19 * x43
   + 64 x19 * x44 - 18 x19 * x46 - 92 x19 * x48 + 26 x19 * x49
   + 16 x19 * x51 + 50 x19 * x52 - 38 x19 * x53 + 8 x19 * x54
   + 74 x19 * x55 + 62 x19 * x56 + 92 x19 * x57 - 54 x19 * x58
   + 46 x19 * x59 + 72 x19 * x60 + 42 x19 * x62 + 10 x19 * x64
   + 78 x19 * x65 + 2 x19 * x66 - 18 x19 * x67 + 70 x19 * x69 - 8 x20 ^2
   + 52 x20 * x21 + 56 x20 * x23 - 82 x20 * x24 + 22 x20 * x25
   - 50 x20 * x26 + 26 x20 * x27 + 76 x20 * x28 - 22 x20 * x29
   + 4 x20 * x31 + 40 x20 * x32 + 24 x20 * x33 + 22 x20 * x36
   - 40 x20 * x37 + 12 x20 * x39 + 46 x20 * x40 - 70 x20 * x41
   + 42 x20 * x47 + 2 x20 * x48 + 60 x20 * x49 - 6 x20 * x50 + 72 x20 * x53
   + 88 x20 * x54 - 34 x20 * x55 - 22 x20 * x57 - 24 x20 * x58
   + 22 x20 * x60 - 28 x20 * x61 - 80 x20 * x63 + 70 x20 * x64
   - 72 x20 * x67 - 4 x20 * x68 + 80 x20 * x69 - 3 x21 ^2 + 36 x21 * x22
   - 40 x21 * x23 - 40 x21 * x25 - 30 x21 * x26 + 20 x21 * x28
   + 26 x21 * x29 + 42 x21 * x30 + 16 x21 * x31 - 28 x21 * x32
   - 6 x21 * x34 + 30 x21 * x35 + 8 x21 * x36 - 72 x21 * x37 + 20 x21 * x38
   + 44 x21 * x39 + 72 x21 * x40 + 14 x21 * x41 + 20 x21 * x46
   - 30 x21 * x47 + 76 x21 * x50 + 58 x21 * x51 + 76 x21 * x52
   - 24 x21 * x53 + 78 x21 * x54 - 36 x21 * x57 - 62 x21 * x58
   - 86 x21 * x59 + 16 x21 * x60 + 82 x21 * x61 - 54 x21 * x62
   + 84 x21 * x64 + 8 x21 * x66 - 10 x21 * x69 + 32 x22 ^2 + 86 x22 * x23
   - 6 x22 * x25 + 88 x22 * x26 - 46 x22 * x27 + 40 x22 * x31
   - 46 x22 * x32 - 46 x22 * x33 + 56 x22 * x34 + 20 x22 * x35
   - 22 x22 * x37 + 32 x22 * x38 + 62 x22 * x40 - 10 x22 * x42
   + 58 x22 * x43 + 24 x22 * x44 - 86 x22 * x45 + 62 x22 * x46
   - 68 x22 * x47 + 14 x22 * x48 - 86 x22 * x50 - 4 x22 * x51
   - 62 x22 * x52 + 76 x22 * x53 + 34 x22 * x54 - 58 x22 * x55
   + 48 x22 * x56 + 12 x22 * x57 - 84 x22 * x58 + 98 x22 * x59
   + 68 x22 * x60 + 52 x22 * x61 - 2 x22 * x62 + 14 x22 * x63
   + 10 x22 * x65 - 70 x22 * x67 - 60 x22 * x68 - 84 x22 * x69 - 29 x23 ^2
   + 90 x23 * x26 + 24 x23 * x27 - 50 x23 * x28 + 58 x23 * x30
   + 16 x23 * x32 - 38 x23 * x33 + 74 x23 * x34 - 96 x23 * x35
   - 22 x23 * x36 + 16 x23 * x37 - 70 x23 * x38 - 22 x23 * x39
   + 92 x23 * x40 + 48 x23 * x42 + 68 x23 * x43 + 8 x23 * x44
   + 86 x23 * x45 - 86 x23 * x46 - 8 x23 * x47 - 24 x23 * x48
   + 98 x23 * x49 + 96 x23 * x51 - 4 x23 * x52 - 52 x23 * x53
   - 26 x23 * x54 - 34 x23 * x55 + 24 x23 * x56 - 10 x23 * x57
   + 20 x23 * x58 - 48 x23 * x59 + 40 x23 * x61 - 44 x23 * x65
   + 98 x23 * x66 + 24 x23 * x67 - 62 x23 * x68 - 24 x24 * x27
   - 74 x24 * x28 - 46 x24 * x30 - 88 x24 * x31 - 32 x24 * x32
   + 50 x24 * x35 - 42 x24 * x36 + 14 x24 * x38 - 98 x24 * x41
   - 60 x24 * x42 - 8 x24 * x43 + 88 x24 * x44 + 28 x24 * x45
   - 56 x24 * x46 + 28 x24 * x47 + 54 x24 * x48 + 6 x24 * x52
   + 24 x24 * x53 + 28 x24 * x54 + 38 x24 * x55 - 76 x24 * x57
   - 82 x24 * x59 - 12 x24 * x60 - 30 x24 * x62 - 20 x24 * x63
   - 32 x24 * x65 - 32 x24 * x66 + 24 x24 * x69 - 2 x25 ^2 - 42 x25 * x27
   - 58 x25 * x28 - 58 x25 * x29 + 88 x25 * x30 + 12 x25 * x31
   + 56 x25 * x32 - 14 x25 * x33 + 54 x25 * x34 + 82 x25 * x35
   - 10 x25 * x38 + 32 x25 * x39 - 4 x25 * x40 + 18 x25 * x41
   + 82 x25 * x42 + 28 x25 * x43 - 4 x25 * x46 - 8 x25 * x48 + 16 x25 * x49
   - 82 x25 * x50 + 90 x25 * x51 + 56 x25 * x52 - 84 x25 * x53
   - 4 x25 * x54 + 32 x25 * x55 + 22 x25 * x56 + 30 x25 * x57
   + 92 x25 * x58 + 36 x25 * x59 - 70 x25 * x60 - 12 x25 * x61
   - 36 x25 * x62 - 40 x25 * x63 + 50 x25 * x64 - 46 x25 * x65
   + 36 x25 * x66 - 84 x25 * x67 + 60 x25 * x68 - 56 x25 * x69 - 5 x26 ^2
   - 32 x26 * x27 - 58 x26 * x28 + 88 x26 * x29 + 50 x26 * x30
   - 24 x26 * x31 - 40 x26 * x32 + 14 x26 * x33 + 90 x26 * x34
   - 56 x26 * x37 + 94 x26 * x39 - 12 x26 * x40 - 92 x26 * x41
   - 20 x26 * x42 + 4 x26 * x43 - 78 x26 * x44 - 68 x26 * x45 + 4 x26 * x46
   + 82 x26 * x47 - 38 x26 * x48 + 50 x26 * x49 - 34 x26 * x50
   - 24 x26 * x51 + 68 x26 * x52 + 16 x26 * x53 - 94 x26 * x55
   - 72 x26 * x59 - 28 x26 * x61 + 8 x26 * x62 - 20 x26 * x64
   + 14 x26 * x65 + 82 x26 * x67 + 4 x26 * x68 - 22 x26 * x69 - 18 x27 ^2
   - 22 x27 * x28 + 22 x27 * x29 + 32 x27 * x30 + 74 x27 * x31
   - 98 x27 * x32 - 12 x27 * x33 - 24 x27 * x34 + 90 x27 * x35
   + 88 x27 * x36 - 42 x27 * x37 - 96 x27 * x38 + 74 x27 * x39
   - 82 x27 * x40 - 4 x27 * x41 - 6 x27 * x42 + 94 x27 * x43 + 90 x27 * x45
   + 84 x27 * x46 + 48 x27 * x48 + 32 x27 * x49 + 62 x27 * x51
   + 82 x27 * x53 + 86 x27 * x54 - 8 x27 * x57 + 82 x27 * x58
   - 68 x27 * x59 + 74 x27 * x60 + 26 x27 * x61 + 60 x27 * x62
   - 8 x27 * x63 + 88 x27 * x64 - 38 x27 * x65 + 40 x27 * x66
   - 84 x27 * x68 - 70 x27 * x69 + 21 x28 ^2 + 84 x28 * x30 + 78 x28 * x32
   - 92 x28 * x33 - 10 x28 * x34 + 4 x28 * x35 + 90 x28 * x36
   + 40 x28 * x39 - 14 x28 * x40 + 56 x28 * x41 + 70 x28 * x43
   + 90 x28 * x44 - 90 x28 * x46 + 10 x28 * x48 - 4 x28 * x49
   - 80 x28 * x50 + 50 x28 * x53 + 8 x28 * x54 + 88 x28 * x55
   + 52 x28 * x57 + 2 x28 * x58 + 28 x28 * x62 + 60 x28 * x63
   + 78 x28 * x64 + 98 x28 * x65 - 38 x28 * x66 - 6 x28 * x67
   - 94 x28 * x68 - 44 x29 * x30 + 48 x29 * x31 + 8 x29 * x32
   - 28 x29 * x34 + 12 x29 * x37 - 84 x29 * x38 + 68 x29 * x39
   - 40 x29 * x40 - 38 x29 * x41 + 16 x29 * x44 + 24 x29 * x45
   - 30 x29 * x46 + 22 x29 * x47 + 34 x29 * x48 - 18 x29 * x49
   - 60 x29 * x51 + 26 x29 * x53 - 74 x29 * x55 - 64 x29 * x56
   + 76 x29 * x58 - 6 x29 * x59 - 46 x29 * x62 + 88 x29 * x64
   - 78 x29 * x65 + 14 x29 * x66 - 92 x29 * x67 + 70 x29 * x68
   + 38 x29 * x69 + 38 x30 ^2 - 72 x30 * x32 - 10 x30 * x33 + 80 x30 * x34
   - 70 x30 * x35 + 68 x30 * x37 - 12 x30 * x38 - 18 x30 * x39
   - 56 x30 * x40 + 42 x30 * x41 + 8 x30 * x42 + 86 x30 * x43
   - 96 x30 * x44 - 76 x30 * x45 + 50 x30 * x46 + 60 x30 * x48
   - 78 x30 * x49 - 96 x30 * x50 + 52 x30 * x51 + 20 x30 * x54
   - 36 x30 * x55 - 20 x30 * x56 - 56 x30 * x58 - 38 x30 * x59
   + 10 x30 * x61 - 88 x30 * x65 - 46 x31 ^2 + 76 x31 * x32 + 36 x31 * x33
   - 92 x31 * x34 + 34 x31 * x35 - 14 x31 * x36 + 10 x31 * x37
   + 14 x31 * x38 + 70 x31 * x40 + 20 x31 * x42 - 50 x31 * x45
   - 86 x31 * x46 + 82 x31 * x47 + 16 x31 * x48 - 36 x31 * x49
   - 50 x31 * x50 + 66 x31 * x51 - 78 x31 * x52 + 88 x31 * x53
   - 94 x31 * x55 + 50 x31 * x56 + 24 x31 * x58 + 96 x31 * x59
   + 46 x31 * x61 + 36 x31 * x63 + 6 x31 * x64 + 84 x31 * x65
   + 72 x31 * x66 - 28 x31 * x68 - 48 x31 * x69 + 39 x32 ^2 + 90 x32 * x33
   + 36 x32 * x34 + 56 x32 * x35 - 54 x32 * x36 + 78 x32 * x37
   + 6 x32 * x38 + 58 x32 * x39 - 4 x32 * x40 + 50 x32 * x41 - 22 x32 * x42
   + 96 x32 * x43 - 24 x32 * x44 - 30 x32 * x46 + 88 x32 * x47
   + 70 x32 * x48 + 80 x32 * x49 + 42 x32 * x50 + 50 x32 * x51
   - 24 x32 * x53 + 78 x32 * x56 + 78 x32 * x58 + 64 x32 * x59
   - 54 x32 * x60 + 66 x32 * x62 - 34 x32 * x65 + 32 x32 * x67
   + 98 x33 * x34 - 14 x33 * x35 - 38 x33 * x37 - 50 x33 * x38
   + 86 x33 * x39 + 70 x33 * x41 - 24 x33 * x42 + 80 x33 * x43
   + 62 x33 * x44 - 74 x33 * x45 - 86 x33 * x47 - 90 x33 * x49
   + 92 x33 * x51 - 84 x33 * x52 + 40 x33 * x53 + 36 x33 * x54
   - 48 x33 * x55 - 94 x33 * x56 + 68 x33 * x57 + 42 x33 * x58
   + 36 x33 * x59 + 56 x33 * x65 - 62 x33 * x68 - 2 x33 * x69 + 25 x34 ^2
   - 44 x34 * x35 - 82 x34 * x37 + 74 x34 * x38 - 98 x34 * x40
   - 98 x34 * x41 - 98 x34 * x43 + 30 x34 * x45 - 32 x34 * x46
   - 84 x34 * x47 - 32 x34 * x48 - 50 x34 * x49 + 10 x34 * x51
   + 84 x34 * x52 + 48 x34 * x54 - 16 x34 * x55 - 48 x34 * x56
   + 80 x34 * x57 + 64 x34 * x59 - 14 x34 * x60 + 50 x34 * x61
   + 64 x34 * x62 - 22 x34 * x65 + 4 x34 * x67 - 22 x34 * x68
   - 74 x34 * x69 - 27 x35 ^2 - 28 x35 * x36 + 34 x35 * x37 + 86 x35 * x38
   + 14 x35 * x40 - 66 x35 * x41 + 24 x35 * x42 + 28 x35 * x43
   + 54 x35 * x44 - 28 x35 * x45 + 88 x35 * x46 + 42 x35 * x48
   - 40 x35 * x51 - 96 x35 * x52 + 38 x35 * x53 - 4 x35 * x54
   - 96 x35 * x57 - 72 x35 * x58 - 80 x35 * x60 + 28 x35 * x61
   - 32 x35 * x62 - 22 x35 * x64 - 30 x35 * x67 + 96 x35 * x68
   - 26 x35 * x69 + 13 x36 ^2 - 98 x36 * x37 - 26 x36 * x38 + 14 x36 * x39
   + 92 x36 * x41 - 70 x36 * x42 - 76 x36 * x43 + 10 x36 * x44
   + 6 x36 * x45 - 32 x36 * x46 - 32 x36 * x48 + 88 x36 * x51 + 2 x36 * x52
   - 2 x36 * x55 + 48 x36 * x57 - 96 x36 * x58 - 88 x36 * x59
   + 26 x36 * x60 - 44 x36 * x61 - 30 x36 * x62 - 2 x36 * x63
   - 76 x36 * x64 + 42 x36 * x66 - 12 x36 * x67 + 60 x36 * x68
   - 60 x36 * x69 - 26 x37 ^2 - 36 x37 * x39 + 64 x37 * x40 - 58 x37 * x42
   + 92 x37 * x43 - 96 x37 * x47 - 58 x37 * x48 + 22 x37 * x49
   - 76 x37 * x50 - 62 x37 * x51 - 90 x37 * x52 - 46 x37 * x55
   - 42 x37 * x56 + 44 x37 * x57 + 14 x37 * x58 + 60 x37 * x60
   - 46 x37 * x61 + 6 x37 * x63 - 68 x37 * x64 - 64 x37 * x65
   + 18 x37 * x66 - 38 x37 * x67 + 30 x37 * x69 + 37 x38 ^2 + 66 x38 * x40
   - 52 x38 * x41 + 68 x38 * x42 - 90 x38 * x43 + 56 x38 * x44
   + 34 x38 * x45 - 82 x38 * x46 + 54 x38 * x47 + 84 x38 * x48
   + 64 x38 * x49 + 84 x38 * x50 - 10 x38 * x51 + 68 x38 * x52
   + 24 x38 * x55 + 28 x38 * x56 + 58 x38 * x57 + 62 x38 * x61
   - 28 x38 * x62 - 90 x38 * x64 - 74 x38 * x66 + 30 x38 * x67
   + 54 x38 * x68 - 88 x38 * x69 - 23 x39 ^2 + 2 x39 * x40 - 66 x39 * x41
   + 98 x39 * x42 - 72 x39 * x43 + 58 x39 * x44 + 8 x39 * x45 - 2 x39 * x46
   - 22 x39 * x48 - 98 x39 * x50 - 16 x39 * x52 - 38 x39 * x54
   + 50 x39 * x56 + 4 x39 * x57 - 66 x39 * x58 - 68 x39 * x60
   - 66 x39 * x62 + 12 x39 * x64 - 32 x39 * x65 + 62 x39 * x66
   + 60 x39 * x67 - 48 x39 * x68 - 32 x39 * x69 + 15 x40 ^2 + 36 x40 * x41
   + 78 x40 * x42 + 48 x40 * x43 - 16 x40 * x44 + 62 x40 * x47
   + 42 x40 * x52 - 58 x40 * x53 + 58 x40 * x55 - 96 x40 * x56
   + 18 x40 * x58 - 36 x40 * x59 + 96 x40 * x60 + 46 x40 * x62
   - 78 x40 * x63 + 64 x40 * x64 - 78 x40 * x65 - 82 x40 * x67
   - 42 x40 * x68 + 5 x41 ^2 - 80 x41 * x42 + 44 x41 * x44 + 54 x41 * x45
   + 20 x41 * x47 + 34 x41 * x50 - 62 x41 * x51 - 50 x41 * x52
   + 36 x41 * x53 + 52 x41 * x54 - 32 x41 * x55 + 2 x41 * x56
   - 66 x41 * x58 - 60 x41 * x60 - 44 x41 * x61 - 14 x41 * x62
   + 10 x41 * x63 + 68 x41 * x65 - 46 x41 * x66 + 44 x41 * x67
   - 54 x41 * x68 - 52 x41 * x69 - 56 x42 * x45 - 4 x42 * x46
   + 18 x42 * x47 + 28 x42 * x48 + 54 x42 * x49 + 88 x42 * x50
   - 58 x42 * x53 - 16 x42 * x54 - 12 x42 * x55 - 70 x42 * x56
   + 74 x42 * x57 + 94 x42 * x58 + 26 x42 * x59 + 80 x42 * x60
   + 68 x42 * x61 + 4 x42 * x62 + 82 x42 * x64 - 98 x42 * x65
   + 64 x42 * x67 - 96 x42 * x68 + 17 x43 ^2 + 86 x43 * x45 + 70 x43 * x46
   - 44 x43 * x47 - 52 x43 * x48 + 8 x43 * x49 - 44 x43 * x51
   + 64 x43 * x52 - 42 x43 * x54 + 26 x43 * x55 - 22 x43 * x56
   + 54 x43 * x58 + 12 x43 * x59 - 78 x43 * x60 - 52 x43 * x61
   + 98 x43 * x62 + 76 x43 * x63 + 48 x43 * x65 - 90 x43 * x66
   - 66 x43 * x67 + 80 x43 * x69 - 12 x44 ^2 - 16 x44 * x45 + 58 x44 * x46
   + 78 x44 * x48 + 66 x44 * x49 - 24 x44 * x50 - 34 x44 * x51
   - 30 x44 * x53 - 58 x44 * x54 + 64 x44 * x55 + 68 x44 * x56
   - 12 x44 * x57 + 50 x44 * x58 + 28 x44 * x59 + 96 x44 * x60
   - 24 x44 * x61 - 46 x44 * x63 - 80 x44 * x64 + 40 x44 * x65
   + 8 x44 * x66 - 80 x44 * x67 + 94 x44 * x68 + 12 x45 * x46
   + 12 x45 * x47 - 84 x45 * x48 - 76 x45 * x49 - 88 x45 * x51
   - 92 x45 * x52 - 42 x45 * x54 + 22 x45 * x55 + 20 x45 * x56
   + 66 x45 * x57 + 44 x45 * x58 - 82 x45 * x60 + 48 x45 * x61
   - 66 x45 * x62 - 60 x45 * x63 + 98 x45 * x64 + 56 x45 * x66
   - 72 x45 * x67 + 66 x45 * x68 - 22 x45 * x69 - 31 x46 ^2 + 48 x46 * x47
   + 98 x46 * x48 + 64 x46 * x49 - 28 x46 * x50 - 58 x46 * x52
   - 18 x46 * x53 + 90 x46 * x54 - 88 x46 * x58 + 50 x46 * x59
   + 98 x46 * x60 - 68 x46 * x62 + 96 x46 * x63 - 6 x46 * x65
   + 26 x46 * x66 - 20 x46 * x67 - 86 x46 * x68 - 42 x47 ^2 + 64 x47 * x49
   + 50 x47 * x50 - 64 x47 * x51 - 76 x47 * x52 - 52 x47 * x53
   - 14 x47 * x54 + 72 x47 * x57 + 78 x47 * x59 - 64 x47 * x60
   + 12 x47 * x61 + 54 x47 * x62 + 44 x47 * x63 - 12 x47 * x64
   - 22 x47 * x65 + 44 x47 * x66 - 96 x47 * x67 + 74 x47 * x68
   + 38 x47 * x69 + 66 x48 * x49 + 52 x48 * x51 - 90 x48 * x52
   - 2 x48 * x53 - 22 x48 * x55 - 18 x48 * x56 - 58 x48 * x57
   - 90 x48 * x60 + 94 x48 * x61 + 64 x48 * x62 - 48 x48 * x63
   - 86 x48 * x64 + 78 x48 * x65 + 24 x48 * x69 - 43 x49 ^2 - 84 x49 * x50
   + 14 x49 * x51 - 86 x49 * x52 + 16 x49 * x53 + 14 x49 * x55
   - 26 x49 * x56 - 4 x49 * x57 + 6 x49 * x58 + 30 x49 * x59 + 20 x49 * x60
   + 6 x49 * x62 - 66 x49 * x64 - 22 x49 * x65 - 30 x49 * x66
   - 14 x49 * x68 + 80 x49 * x69 + 58 x50 * x51 + 62 x50 * x53
   + 60 x50 * x54 + 66 x50 * x55 - 72 x50 * x56 - 62 x50 * x57
   + 70 x50 * x59 + 96 x50 * x60 + 2 x50 * x61 + 66 x50 * x62
   + 30 x50 * x64 - 8 x50 * x65 + 62 x50 * x67 + 8 x50 * x68 + 62 x50 * x69
   + 22 x51 ^2 - 60 x51 * x52 - 92 x51 * x53 + 4 x51 * x54 - 44 x51 * x55
   + 44 x51 * x57 + 90 x51 * x58 - 56 x51 * x59 + 94 x51 * x61
   - 10 x51 * x62 + 94 x51 * x63 + 58 x51 * x64 + 52 x51 * x65
   + 68 x51 * x67 + 74 x51 * x68 + 32 x51 * x69 + 49 x52 ^2 + 42 x52 * x53
   - 36 x52 * x54 + 46 x52 * x55 + 40 x52 * x56 - 56 x52 * x58
   + 84 x52 * x59 - 28 x52 * x60 + 18 x52 * x61 - 48 x52 * x63
   - 90 x52 * x64 + 86 x52 * x67 - 20 x52 * x69 + 12 x53 ^2 + 84 x53 * x54
   + 68 x53 * x55 - 2 x53 * x56 - 24 x53 * x57 + 26 x53 * x58
   + 72 x53 * x59 + 26 x53 * x60 + 12 x53 * x61 - 10 x53 * x62
   - 60 x53 * x63 + 88 x53 * x64 - 36 x53 * x65 - 82 x53 * x66
   + 62 x53 * x68 + 36 x54 ^2 + 92 x54 * x55 - 44 x54 * x56 - 72 x54 * x57
   - 22 x54 * x58 - 74 x54 * x61 + 14 x54 * x62 - 96 x54 * x63
   - 88 x54 * x64 - 12 x54 * x65 - 18 x54 * x66 + 64 x54 * x67
   + 52 x54 * x69 - 39 x55 ^2 - 60 x55 * x56 + 38 x55 * x57 + 52 x55 * x58
   - 52 x55 * x59 + 44 x55 * x60 - 60 x55 * x61 - 80 x55 * x62
   + 84 x55 * x64 + 40 x55 * x65 - 18 x55 * x66 - 42 x55 * x68 + 28 x56 ^2
   + 48 x56 * x57 + 44 x56 * x58 + 24 x56 * x59 + 64 x56 * x60
   - 48 x56 * x61 - 92 x56 * x62 - 26 x56 * x64 + 72 x56 * x65
   + 72 x56 * x66 + 30 x56 * x67 + 82 x56 * x68 + 26 x56 * x69 + 25 x57 ^2
   - 14 x57 * x58 + 66 x57 * x59 - 62 x57 * x60 + 76 x57 * x61
   + 76 x57 * x62 + 4 x57 * x63 - 12 x57 * x64 + 56 x57 * x65
   - 80 x57 * x66 + 46 x57 * x67 - 32 x57 * x68 - 92 x57 * x69
   - 98 x58 * x59 - 14 x58 * x61 + 88 x58 * x62 + 52 x58 * x64
   - 48 x58 * x65 - 72 x58 * x66 + 64 x58 * x67 - 2 x58 * x69 + 49 x59 ^2
   - 36 x59 * x60 - 60 x59 * x61 + 38 x59 * x62 + 18 x59 * x63
   - 70 x59 * x64 + 20 x59 * x65 + 96 x59 * x66 + 34 x59 * x68
   - 40 x59 * x69 - 58 x60 * x61 - 76 x60 * x62 + 78 x60 * x63
   + 68 x60 * x65 + 18 x60 * x66 + 84 x60 * x67 + 36 x60 * x68 + 36 x61 ^2
   + 58 x61 * x62 - 42 x61 * x64 + 86 x61 * x65 - 8 x61 * x68
   - 72 x61 * x69 + 30 x62 * x63 - 70 x62 * x64 - 36 x62 * x65
   + 4 x62 * x69 + 16 x63 * x64 + 4 x63 * x65 - 58 x63 * x66 - 82 x63 * x67
   - 30 x63 * x68 + 40 x64 * x65 - 6 x64 * x67 + 52 x64 * x68 - 28 x65 ^2
   + 64 x65 * x66 + 78 x65 * x68 + 4 x66 ^2 - 14 x66 * x68 + 92 x66 * x69
   + 12 x67 ^2 + 4 x67 * x69 + 22 x68 ^2 - 6 x68 * x69 - 37 x69 ^2 ] / 2 
Subject To
Bounds
 x0 <= 1
 x1 <= 1
 x2 <= 1
 x3 <= 1
 x4 <= 1
 x5 <= 1
 x6 <= 1
 x7 <= 1
 x8 <= 1
 x9 <= 1
 x10 <= 1
 x11 <= 1
 x12 <= 1
 x13 <= 1
 x14 <= 1
 x15 <= 1
 x16 <= 1
 x17 <= 1
 x18 <= 1
 x19 <= 1
 x20 <= 1
 x21 <= 1
 x22 <= 1
 x23 <= 1
 x24 <= 1
 x25 <= 1
 x26 <= 1
 x27 <= 1
 x28 <= 1
 x29 <= 1
 x30 <= 1
 x31 <= 1
 x32 <= 1
 x33 <= 1
 x34 <= 1
 x35 <= 1
 x36 <= 1
 x37 <= 1
 x38 <= 1
 x39 <= 1
 x40 <= 1
 x41 <= 1
 x42 <= 1
 x43 <= 1
 x44 <= 1
 x45 <= 1
 x46 <= 1
 x47 <= 1
 x48 <= 1
 x49 <= 1
 x50 <= 1
 x51 <= 1
 x52 <= 1
 x53 <= 1
 x54 <= 1
 x55 <= 1
 x56 <= 1
 x57 <= 1
 x58 <= 1
 x59 <= 1
 x60 <= 1
 x61 <= 1
 x62 <= 1
 x63 <= 1
 x64 <= 1
 x65 <= 1
 x66 <= 1
 x67 <= 1
 x68 <= 1
 x69 <= 1
End
